(set-logic ALL)
(set-option :produce-models true)
(declare-sort BoundSet 0)
(declare-sort UnboundSet 0)
(set-option :finite-model-find true)
(declare-fun IsImpressed (BoundSet BoundSet) Bool)
(declare-fun IsImpressive (BoundSet) Bool)
(assert (not (=> (and (exists ((a BoundSet)) (exists ((b BoundSet)) (IsImpressed b a))) (forall ((e BoundSet)) (forall ((f BoundSet)) (forall ((d BoundSet)) (=> (IsImpressed d e) (IsImpressive f)))))) (exists ((a BoundSet)) (IsImpressive a)))))
(check-sat)
(get-model)